instances/in_50_25_8_3.dzn
n = 50;
k = 25;
h = 8;
tiles = array2d(1..n, 1..2,
[ 23,21
, 19,6
, 5,15
, 10,6
, 6,23
, 22,15
, 4,2
, 8,7
, 22,22
, 14,6
, 19,4
, 12,10
, 25,16
, 25,10
, 19,1
, 8,25
, 10,6
, 19,16
, 7,17
, 9,4
, 13,13
, 11,6
, 2,4
, 23,21
, 4,25
, 4,11
, 15,15
, 18,13
, 1,9
, 13,24
, 15,12
, 17,5
, 6,13
, 16,3
, 5,15
, 16,21
, 6,11
, 1,18
, 15,18
, 4,21
, 18,16
, 4,10
, 7,4
, 7,25
, 18,15
, 6,10
, 4,16
, 14,10
, 4,6
, 6,23
]);