instances/in_50_25_8_3.lp
#const n = 50.
#const k = 25.
#const h = 8.
tile(1,23,21).
tile(2,19,6).
tile(3,5,15).
tile(4,10,6).
tile(5,6,23).
tile(6,22,15).
tile(7,4,2).
tile(8,8,7).
tile(9,22,22).
tile(10,14,6).
tile(11,19,4).
tile(12,12,10).
tile(13,25,16).
tile(14,25,10).
tile(15,19,1).
tile(16,8,25).
tile(17,10,6).
tile(18,19,16).
tile(19,7,17).
tile(20,9,4).
tile(21,13,13).
tile(22,11,6).
tile(23,2,4).
tile(24,23,21).
tile(25,4,25).
tile(26,4,11).
tile(27,15,15).
tile(28,18,13).
tile(29,1,9).
tile(30,13,24).
tile(31,15,12).
tile(32,17,5).
tile(33,6,13).
tile(34,16,3).
tile(35,5,15).
tile(36,16,21).
tile(37,6,11).
tile(38,1,18).
tile(39,15,18).
tile(40,4,21).
tile(41,18,16).
tile(42,4,10).
tile(43,7,4).
tile(44,7,25).
tile(45,18,15).
tile(46,6,10).
tile(47,4,16).
tile(48,14,10).
tile(49,4,6).
tile(50,6,23).
